nN = 8;
nR = 32;
nH = 1;

a = [[24, 16, 22, 24, 16, 25, 18, 23, 20, 22, 24, 25, 25, 23, 24, 25, 19, 22, 15, 22, 19, 24, 18, 15, 16, 19, 21, 18, 20, 17, 19, 24], [16, 15, 22, 18, 16, 19, 23, 23, 15, 18, 17, 23, 19, 16, 18, 17, 21, 25, 17, 23, 16, 16, 18, 15, 21, 20, 23, 22, 18, 22, 24, 22], [18, 25, 21, 21, 25, 17, 22, 15, 24, 17, 19, 20, 25, 16, 23, 20, 19, 20, 24, 22, 15, 20, 24, 22, 18, 24, 23, 19, 16, 16, 16, 22], [24, 16, 18, 18, 18, 21, 17, 18, 23, 16, 17, 15, 22, 17, 25, 15, 20, 17, 18, 16, 17, 18, 25, 20, 17, 24, 22, 22, 18, 24, 21, 24], [24, 15, 19, 22, 16, 17, 15, 24, 23, 25, 15, 15, 17, 24, 21, 18, 17, 20, 18, 15, 23, 18, 20, 20, 21, 23, 22, 22, 23, 17, 24, 23], [24, 15, 16, 18, 24, 24, 23, 15, 23, 23, 18, 22, 24, 25, 21, 25, 18, 24, 19, 22, 25, 16, 17, 24, 18, 25, 17, 15, 24, 19, 21, 23], [20, 19, 16, 23, 25, 23, 22, 15, 15, 17, 17, 19, 23, 15, 23, 21, 17, 16, 18, 18, 16, 20, 19, 16, 18, 23, 25, 19, 16, 20, 15, 18], [24, 25, 25, 17, 18, 20, 18, 19, 23, 16, 25, 16, 19, 20, 16, 18, 18, 16, 20, 21, 15, 17, 23, 25, 16, 20, 23, 19, 16, 18, 20, 19]];
c = [[[0, 0, 0, 0, 0, 0, 0, 0, 0, 0, 0, 0, 0, 0, 0, 0, 0, 0, 0, 0, 0, 0, 0, 0, 0, 0, 0, 0, 0, 0, 0, 0], [43, 36, 47, 32, 38, 44, 34, 40, 34, 49, 48, 47, 35, 40, 49, 37, 41, 40, 50, 40, 31, 44, 31, 50, 39, 35, 49, 33, 31, 43, 49, 32], [35, 41, 41, 45, 32, 36, 41, 39, 49, 37, 35, 34, 36, 42, 36, 48, 46, 39, 39, 43, 30, 50, 39, 45, 38, 49, 33, 39, 46, 34, 50, 47], [32, 50, 36, 30, 31, 32, 35, 48, 46, 48, 31, 40, 47, 39, 30, 33, 47, 47, 30, 44, 38, 33, 30, 41, 42, 50, 47, 38, 43, 43, 37, 33], [34, 48, 40, 30, 40, 45, 32, 41, 31, 49, 47, 42, 30, 34, 41, 35, 38, 34, 39, 35, 43, 40, 38, 40, 43, 45, 31, 41, 35, 35, 40, 30], [49, 46, 33, 43, 46, 38, 42, 30, 46, 38, 40, 42, 31, 34, 34, 43, 47, 41, 35, 49, 33, 35, 48, 38, 43, 48, 40, 39, 38, 36, 33, 40], [36, 41, 36, 44, 33, 32, 35, 43, 42, 38, 35, 43, 47, 39, 39, 37, 33, 33, 48, 49, 34, 44, 40, 49, 50, 39, 35, 48, 42, 49, 47, 40], [30, 37, 43, 38, 45, 34, 42, 48, 49, 38, 32, 46, 41, 40, 31, 47, 42, 45, 49, 38, 35, 36, 31, 32, 31, 47, 34, 41, 33, 31, 38, 33]], [[0, 0, 0, 0, 0, 0, 0, 0, 0, 0, 0, 0, 0, 0, 0, 0, 0, 0, 0, 0, 0, 0, 0, 0, 0, 0, 0, 0, 0, 0, 0, 0], [0, 0, 0, 0, 0, 0, 0, 0, 0, 0, 0, 0, 0, 0, 0, 0, 0, 0, 0, 0, 0, 0, 0, 0, 0, 0, 0, 0, 0, 0, 0, 0], [48, 37, 32, 44, 40, 40, 42, 31, 38, 48, 36, 39, 33, 37, 48, 37, 48, 46, 46, 36, 33, 40, 43, 39, 48, 37, 33, 48, 41, 47, 36, 46], [46, 46, 35, 42, 41, 35, 33, 35, 31, 49, 38, 42, 40, 45, 47, 36, 50, 33, 31, 37, 46, 39, 37, 45, 47, 30, 42, 35, 31, 37, 46, 35], [31, 49, 49, 41, 45, 47, 42, 47, 32, 50, 40, 48, 47, 41, 35, 31, 32, 43, 47, 49, 43, 50, 31, 49, 47, 32, 35, 41, 40, 39, 37, 49], [43, 37, 45, 50, 33, 40, 49, 33, 32, 49, 47, 38, 50, 32, 31, 31, 49, 43, 39, 44, 42, 35, 40, 45, 49, 40, 37, 43, 40, 48, 30, 40], [46, 43, 34, 41, 33, 43, 43, 50, 48, 50, 46, 40, 46, 33, 47, 38, 31, 32, 40, 49, 47, 42, 41, 32, 47, 50, 34, 42, 50, 35, 35, 36], [48, 31, 49, 41, 37, 33, 31, 39, 34, 34, 37, 50, 34, 43, 30, 35, 48, 38, 41, 39, 48, 37, 35, 46, 37, 46, 50, 33, 44, 50, 37, 40]], [[0, 0, 0, 0, 0, 0, 0, 0, 0, 0, 0, 0, 0, 0, 0, 0, 0, 0, 0, 0, 0, 0, 0, 0, 0, 0, 0, 0, 0, 0, 0, 0], [0, 0, 0, 0, 0, 0, 0, 0, 0, 0, 0, 0, 0, 0, 0, 0, 0, 0, 0, 0, 0, 0, 0, 0, 0, 0, 0, 0, 0, 0, 0, 0], [0, 0, 0, 0, 0, 0, 0, 0, 0, 0, 0, 0, 0, 0, 0, 0, 0, 0, 0, 0, 0, 0, 0, 0, 0, 0, 0, 0, 0, 0, 0, 0], [50, 37, 41, 46, 31, 50, 39, 39, 34, 39, 30, 49, 42, 48, 44, 34, 36, 35, 42, 48, 39, 40, 30, 41, 32, 31, 46, 47, 49, 42, 44, 36], [37, 46, 39, 46, 42, 42, 44, 41, 33, 33, 35, 35, 48, 42, 30, 46, 50, 50, 32, 43, 43, 35, 43, 39, 50, 30, 42, 47, 43, 43, 42, 40], [41, 43, 32, 34, 38, 41, 43, 33, 43, 35, 40, 47, 44, 36, 30, 50, 40, 39, 44, 38, 38, 45, 42, 35, 40, 31, 40, 49, 37, 45, 35, 44], [45, 48, 37, 36, 43, 42, 34, 34, 39, 38, 31, 34, 34, 48, 30, 34, 31, 33, 40, 31, 31, 30, 41, 33, 35, 30, 43, 44, 50, 33, 30, 32], [32, 31, 34, 36, 45, 34, 49, 50, 47, 46, 31, 49, 48, 46, 33, 31, 35, 48, 48, 47, 33, 35, 32, 40, 49, 42, 42, 50, 33, 39, 36, 42]], [[0, 0, 0, 0, 0, 0, 0, 0, 0, 0, 0, 0, 0, 0, 0, 0, 0, 0, 0, 0, 0, 0, 0, 0, 0, 0, 0, 0, 0, 0, 0, 0], [0, 0, 0, 0, 0, 0, 0, 0, 0, 0, 0, 0, 0, 0, 0, 0, 0, 0, 0, 0, 0, 0, 0, 0, 0, 0, 0, 0, 0, 0, 0, 0], [0, 0, 0, 0, 0, 0, 0, 0, 0, 0, 0, 0, 0, 0, 0, 0, 0, 0, 0, 0, 0, 0, 0, 0, 0, 0, 0, 0, 0, 0, 0, 0], [0, 0, 0, 0, 0, 0, 0, 0, 0, 0, 0, 0, 0, 0, 0, 0, 0, 0, 0, 0, 0, 0, 0, 0, 0, 0, 0, 0, 0, 0, 0, 0], [45, 48, 35, 36, 44, 37, 43, 43, 37, 38, 42, 37, 30, 43, 48, 48, 46, 30, 36, 49, 47, 31, 43, 39, 39, 31, 39, 50, 30, 49, 47, 36], [45, 44, 34, 30, 39, 42, 39, 36, 44, 40, 37, 37, 43, 49, 33, 46, 40, 32, 32, 43, 42, 50, 35, 35, 49, 44, 38, 33, 50, 39, 37, 40], [48, 42, 40, 30, 33, 47, 37, 33, 35, 31, 37, 36, 37, 32, 38, 32, 49, 45, 44, 36, 38, 41, 43, 32, 33, 41, 40, 34, 43, 49, 38, 41], [48, 41, 32, 35, 34, 30, 48, 41, 42, 33, 30, 30, 40, 40, 49, 49, 44, 47, 36, 43, 42, 43, 38, 43, 49, 38, 50, 30, 37, 44, 45, 30]], [[0, 0, 0, 0, 0, 0, 0, 0, 0, 0, 0, 0, 0, 0, 0, 0, 0, 0, 0, 0, 0, 0, 0, 0, 0, 0, 0, 0, 0, 0, 0, 0], [0, 0, 0, 0, 0, 0, 0, 0, 0, 0, 0, 0, 0, 0, 0, 0, 0, 0, 0, 0, 0, 0, 0, 0, 0, 0, 0, 0, 0, 0, 0, 0], [0, 0, 0, 0, 0, 0, 0, 0, 0, 0, 0, 0, 0, 0, 0, 0, 0, 0, 0, 0, 0, 0, 0, 0, 0, 0, 0, 0, 0, 0, 0, 0], [0, 0, 0, 0, 0, 0, 0, 0, 0, 0, 0, 0, 0, 0, 0, 0, 0, 0, 0, 0, 0, 0, 0, 0, 0, 0, 0, 0, 0, 0, 0, 0], [0, 0, 0, 0, 0, 0, 0, 0, 0, 0, 0, 0, 0, 0, 0, 0, 0, 0, 0, 0, 0, 0, 0, 0, 0, 0, 0, 0, 0, 0, 0, 0], [35, 32, 41, 38, 30, 42, 48, 36, 46, 38, 46, 45, 45, 40, 45, 40, 31, 49, 37, 37, 48, 30, 35, 45, 45, 37, 32, 45, 36, 36, 45, 42], [47, 45, 34, 36, 31, 35, 30, 35, 36, 40, 39, 48, 44, 40, 39, 36, 46, 41, 45, 34, 38, 46, 43, 47, 44, 35, 32, 31, 41, 32, 47, 43], [46, 40, 44, 49, 36, 30, 38, 43, 48, 48, 32, 36, 35, 39, 50, 46, 34, 49, 35, 30, 34, 43, 43, 50, 41, 44, 49, 46, 44, 31, 47, 37]], [[0, 0, 0, 0, 0, 0, 0, 0, 0, 0, 0, 0, 0, 0, 0, 0, 0, 0, 0, 0, 0, 0, 0, 0, 0, 0, 0, 0, 0, 0, 0, 0], [0, 0, 0, 0, 0, 0, 0, 0, 0, 0, 0, 0, 0, 0, 0, 0, 0, 0, 0, 0, 0, 0, 0, 0, 0, 0, 0, 0, 0, 0, 0, 0], [0, 0, 0, 0, 0, 0, 0, 0, 0, 0, 0, 0, 0, 0, 0, 0, 0, 0, 0, 0, 0, 0, 0, 0, 0, 0, 0, 0, 0, 0, 0, 0], [0, 0, 0, 0, 0, 0, 0, 0, 0, 0, 0, 0, 0, 0, 0, 0, 0, 0, 0, 0, 0, 0, 0, 0, 0, 0, 0, 0, 0, 0, 0, 0], [0, 0, 0, 0, 0, 0, 0, 0, 0, 0, 0, 0, 0, 0, 0, 0, 0, 0, 0, 0, 0, 0, 0, 0, 0, 0, 0, 0, 0, 0, 0, 0], [0, 0, 0, 0, 0, 0, 0, 0, 0, 0, 0, 0, 0, 0, 0, 0, 0, 0, 0, 0, 0, 0, 0, 0, 0, 0, 0, 0, 0, 0, 0, 0], [33, 32, 50, 39, 33, 30, 43, 49, 35, 32, 47, 40, 49, 49, 39, 47, 43, 40, 46, 30, 38, 50, 35, 37, 50, 49, 38, 45, 33, 44, 36, 30], [47, 41, 48, 38, 48, 43, 35, 35, 38, 33, 38, 49, 50, 31, 31, 36, 42, 31, 45, 46, 37, 46, 47, 32, 35, 49, 37, 31, 37, 38, 33, 50]], [[0, 0, 0, 0, 0, 0, 0, 0, 0, 0, 0, 0, 0, 0, 0, 0, 0, 0, 0, 0, 0, 0, 0, 0, 0, 0, 0, 0, 0, 0, 0, 0], [0, 0, 0, 0, 0, 0, 0, 0, 0, 0, 0, 0, 0, 0, 0, 0, 0, 0, 0, 0, 0, 0, 0, 0, 0, 0, 0, 0, 0, 0, 0, 0], [0, 0, 0, 0, 0, 0, 0, 0, 0, 0, 0, 0, 0, 0, 0, 0, 0, 0, 0, 0, 0, 0, 0, 0, 0, 0, 0, 0, 0, 0, 0, 0], [0, 0, 0, 0, 0, 0, 0, 0, 0, 0, 0, 0, 0, 0, 0, 0, 0, 0, 0, 0, 0, 0, 0, 0, 0, 0, 0, 0, 0, 0, 0, 0], [0, 0, 0, 0, 0, 0, 0, 0, 0, 0, 0, 0, 0, 0, 0, 0, 0, 0, 0, 0, 0, 0, 0, 0, 0, 0, 0, 0, 0, 0, 0, 0], [0, 0, 0, 0, 0, 0, 0, 0, 0, 0, 0, 0, 0, 0, 0, 0, 0, 0, 0, 0, 0, 0, 0, 0, 0, 0, 0, 0, 0, 0, 0, 0], [0, 0, 0, 0, 0, 0, 0, 0, 0, 0, 0, 0, 0, 0, 0, 0, 0, 0, 0, 0, 0, 0, 0, 0, 0, 0, 0, 0, 0, 0, 0, 0], [45, 45, 37, 34, 37, 43, 40, 36, 45, 34, 42, 35, 34, 45, 47, 41, 39, 47, 39, 31, 30, 43, 41, 33, 35, 47, 50, 46, 47, 40, 30, 30]], [[0, 0, 0, 0, 0, 0, 0, 0, 0, 0, 0, 0, 0, 0, 0, 0, 0, 0, 0, 0, 0, 0, 0, 0, 0, 0, 0, 0, 0, 0, 0, 0], [0, 0, 0, 0, 0, 0, 0, 0, 0, 0, 0, 0, 0, 0, 0, 0, 0, 0, 0, 0, 0, 0, 0, 0, 0, 0, 0, 0, 0, 0, 0, 0], [0, 0, 0, 0, 0, 0, 0, 0, 0, 0, 0, 0, 0, 0, 0, 0, 0, 0, 0, 0, 0, 0, 0, 0, 0, 0, 0, 0, 0, 0, 0, 0], [0, 0, 0, 0, 0, 0, 0, 0, 0, 0, 0, 0, 0, 0, 0, 0, 0, 0, 0, 0, 0, 0, 0, 0, 0, 0, 0, 0, 0, 0, 0, 0], [0, 0, 0, 0, 0, 0, 0, 0, 0, 0, 0, 0, 0, 0, 0, 0, 0, 0, 0, 0, 0, 0, 0, 0, 0, 0, 0, 0, 0, 0, 0, 0], [0, 0, 0, 0, 0, 0, 0, 0, 0, 0, 0, 0, 0, 0, 0, 0, 0, 0, 0, 0, 0, 0, 0, 0, 0, 0, 0, 0, 0, 0, 0, 0], [0, 0, 0, 0, 0, 0, 0, 0, 0, 0, 0, 0, 0, 0, 0, 0, 0, 0, 0, 0, 0, 0, 0, 0, 0, 0, 0, 0, 0, 0, 0, 0], [0, 0, 0, 0, 0, 0, 0, 0, 0, 0, 0, 0, 0, 0, 0, 0, 0, 0, 0, 0, 0, 0, 0, 0, 0, 0, 0, 0, 0, 0, 0, 0]]];

q = [[[5], [15], [18], [19], [13], [21], [9], [25], [10], [17], [23], [13], [18], [8], [12], [19], [12], [10], [6], [10], [25], [18], [10], [19], [9], [19], [24], [22], [10], [19], [22], [18]], [[18], [18], [17], [23], [5], [9], [21], [21], [10], [21], [13], [5], [20], [18], [10], [14], [17], [15], [25], [17], [7], [13], [16], [14], [6], [12], [16], [14], [10], [13], [9], [11]], [[17], [18], [14], [25], [22], [23], [9], [13], [25], [6], [18], [11], [20], [19], [12], [16], [8], [5], [23], [11], [13], [16], [21], [18], [5], [25], [5], [20], [21], [22], [13], [9]], [[19], [21], [18], [17], [14], [23], [12], [22], [20], [19], [15], [23], [8], [23], [20], [5], [20], [15], [22], [11], [8], [20], [8], [23], [7], [23], [16], [11], [23], [5], [20], [24]], [[11], [7], [24], [11], [10], [6], [13], [9], [5], [8], [16], [21], [23], [12], [16], [21], [20], [9], [9], [16], [20], [18], [17], [24], [14], [20], [8], [11], [7], [18], [16], [17]], [[16], [16], [9], [22], [19], [19], [10], [23], [12], [12], [6], [17], [11], [25], [24], [9], [6], [16], [18], [23], [9], [7], [11], [22], [11], [14], [15], [9], [10], [23], [8], [7]], [[7], [21], [22], [16], [24], [21], [8], [15], [15], [16], [11], [11], [6], [5], [24], [18], [13], [13], [24], [6], [19], [5], [7], [23], [7], [12], [6], [6], [17], [17], [5], [9]], [[12], [13], [10], [5], [7], [18], [6], [22], [12], [8], [7], [10], [10], [13], [21], [24], [6], [21], [10], [23], [5], [10], [14], [14], [13], [6], [9], [11], [21], [6], [16], [7]]];
Q = [[49], [45], [50], [53], [45], [45], [42], [39]];
